NAME : eil101.out.tour
COMMENT : Tour for eil101.tsp (707)
TYPE: TOUR
DIMENSION: 101
TOUR_SELECTION
27
52
18
83
8
82
7
88
31
70
30
20
66
32
90
10
62
63
64
11
19
48
49
36
47
46
45
84
17
86
38
14
44
16
61
5
60
96
99
93
85
91
100
37
98
42
43
15
57
2
87
97
92
59
95
94
6
89
13
58
26
21
4
25
55
67
39
23
56
75
41
22
74
72
73
40
53
101
28
12
80
54
68
29
24
34
78
65
35
71
51
9
81
33
79
3
77
76
50
1
69
-1
EOF
